projected/problems_b25_r0_d7_m100_s666/_DIMACS/b25_d7_r0_s666_046.cnf
p cnf 253 430 25
c p show 1 2 3 4 5 6 7 8 9 10 11 12 13 14 15 16 17 18 19 20 21 22 23 24 25
-53 10 -4 0
-54 -4 7 0
-55 54 53 0
-56 -19 7 0
-57 -9 0
-57 4 0
-58 57 56 0
-59 58 55 0
-60 19 0
-60 -7 0
-61 9 -4 0
-62 61 0
-62 60 0
-63 -10 0
-63 4 0
-64 4 0
-64 -7 0
-66 64 0
-66 63 0
-67 66 62 0
-68 67 0
-68 59 0
-69 -11 0
-69 -6 0
-70 12 0
-70 -8 0
-72 70 69 0
-73 13 0
-73 -18 0
-74 2 0
-74 4 0
-75 74 0
-75 73 0
-76 75 0
-76 72 0
-78 76 68 0
-79 -13 0
-79 -16 0
-80 -23 -17 0
-81 80 79 0
-82 9 -10 0
-84 -15 1 0
-85 84 82 0
-86 85 0
-86 81 0
-87 -23 0
-87 22 0
-88 -10 0
-88 15 0
-90 88 87 0
-91 10 -15 0
-92 23 -22 0
-93 92 91 0
-94 93 0
-94 90 0
-96 -18 13 0
-97 22 18 0
-98 97 96 0
-99 -22 0
-99 -18 0
-100 18 0
-100 -13 0
-102 100 99 0
-103 102 0
-103 98 0
-104 103 0
-104 94 0
-105 104 0
-105 86 0
-106 105 78 0
-108 12 0
-109 8 -16 0
-110 109 0
-110 108 0
-111 5 7 0
-112 6 14 0
-113 112 0
-113 111 0
-114 113 110 0
-115 4 0
-115 -3 0
-116 16 0
-116 -2 0
-117 116 0
-117 115 0
-118 1 20 0
-119 -20 -1 0
-120 119 0
-120 118 0
-121 12 0
-121 10 0
-122 121 0
-122 120 0
-123 122 117 0
-124 123 114 0
-125 19 0
-125 4 0
-126 -9 0
-126 19 0
-127 126 0
-127 125 0
-128 9 -19 0
-129 -19 -4 0
-130 129 0
-130 128 0
-131 130 127 0
-132 -25 0
-132 20 0
-133 23 0
-133 -25 0
-134 133 0
-134 132 0
-135 134 0
-135 131 0
-136 -9 0
-136 21 0
-137 3 0
-137 12 0
-138 137 0
-138 136 0
-139 23 -15 0
-140 1 0
-140 12 0
-141 140 0
-141 139 0
-142 141 138 0
-143 142 0
-143 135 0
-144 143 0
-144 124 0
-145 128 129 0
-146 125 126 0
-147 146 0
-147 145 0
-148 25 -20 0
-149 -23 25 0
-150 149 148 0
-151 150 147 0
-152 9 -21 0
-153 -3 -12 0
-154 153 152 0
-155 -23 0
-155 15 0
-156 -1 -12 0
-157 156 155 0
-158 157 0
-158 154 0
-159 158 151 0
-160 -12 0
-161 -8 0
-161 16 0
-162 161 160 0
-163 -5 0
-163 -7 0
-164 -6 0
-164 -14 0
-165 164 163 0
-166 165 0
-166 162 0
-167 -4 3 0
-168 -16 2 0
-169 168 167 0
-170 -1 0
-170 -20 0
-171 20 0
-171 1 0
-172 171 170 0
-173 -12 -10 0
-174 173 172 0
-175 174 0
-175 169 0
-176 175 0
-176 166 0
-177 176 0
-177 159 0
-178 177 144 0
-179 178 106 0
-180 -18 0
-180 18 0
-181 180 0
-182 -23 0
-182 -21 0
-183 182 181 0
-184 -15 4 0
-185 -6 0
-185 11 0
-186 185 184 0
-187 186 183 0
-188 10 0
-188 15 0
-189 24 0
-189 -11 0
-190 189 188 0
-191 1 0
-191 -16 0
-192 16 0
-192 -1 0
-193 192 191 0
-194 -18 0
-194 2 0
-195 194 193 0
-196 195 190 0
-197 -1 16 0
-198 -16 1 0
-199 198 0
-199 197 0
-200 18 -2 0
-201 200 0
-201 199 0
-202 -10 -15 0
-203 -24 11 0
-204 203 0
-204 202 0
-205 204 201 0
-206 205 0
-206 196 0
-207 206 0
-207 187 0
-208 -10 4 0
-209 7 0
-209 2 0
-210 209 0
-210 208 0
-211 -14 0
-211 13 0
-212 -22 0
-212 10 0
-213 212 0
-213 211 0
-214 22 -10 0
-215 14 -13 0
-216 215 0
-216 214 0
-217 216 213 0
-218 217 0
-218 210 0
-219 17 -17 0
-220 219 0
-221 16 0
-222 221 220 0
-223 -23 0
-223 10 0
-224 -10 0
-224 23 0
-225 224 223 0
-226 -14 0
-226 22 0
-227 226 225 0
-228 227 222 0
-229 228 0
-229 218 0
-230 229 207 0
-231 12 4 0
-232 -6 9 0
-233 232 231 0
-234 -13 0
-234 23 0
-235 24 0
-235 25 0
-236 235 234 0
-237 236 0
-237 233 0
-238 13 -23 0
-239 -24 -25 0
-240 239 0
-240 238 0
-241 -12 0
-241 -4 0
-242 6 0
-242 -9 0
-243 242 0
-243 241 0
-244 243 0
-244 240 0
-245 244 237 0
-246 13 -22 0
-247 6 0
-247 2 0
-248 -2 0
-248 -6 0
-249 248 247 0
-250 249 0
-250 246 0
-251 -10 6 0
-252 168 0
-252 251 0
-253 10 0
-253 -6 0
-26 253 0
-26 116 0
-27 26 252 0
-65 27 0
-65 250 0
-71 65 0
-71 245 0
-77 -13 0
-77 22 0
-83 -6 -2 0
-89 2 6 0
-95 89 0
-95 83 0
-101 95 77 0
-107 116 253 0
-28 251 168 0
-29 28 0
-29 107 0
-30 29 101 0
-31 240 243 0
-32 233 236 0
-33 32 0
-33 31 0
-34 33 0
-34 30 0
-35 34 71 0
-36 10 22 0
-37 4 0
-37 23 0
-38 37 36 0
-39 15 0
-39 20 0
-40 -18 -17 0
-41 40 0
-41 39 0
-42 41 38 0
-43 -4 11 0
-44 -13 -23 0
-45 44 43 0
-46 -23 0
-46 -17 0
-47 11 0
-47 15 0
-48 47 46 0
-49 48 45 0
-50 49 0
-50 42 0
-51 50 0
-51 35 0
-52 51 230 0
52 0
179 0
-60 -56 0
-61 -57 0
-62 -58 0
-53 -63 0
-54 -64 0
-55 -66 0
-88 -91 0
-91 -88 0
-92 -87 0
-87 -92 0
-97 -99 0
-99 -97 0
-96 -100 0
-126 -128 0
-129 -125 0
-147 -131 0
-131 -147 0
-132 -148 0
-148 -132 0
-149 -133 0
-150 -134 0
-134 -150 0
-135 -151 0
-136 -152 0
-137 -153 0
-138 -154 0
-154 -138 0
-139 -155 0
-140 -156 0
-141 -157 0
-157 -141 0
-158 -142 0
-142 -158 0
-143 -159 0
-160 -108 0
-108 -160 0
-161 -109 0
-109 -161 0
-110 -162 0
-162 -110 0
-163 -111 0
-111 -163 0
-112 -164 0
-113 -165 0
-165 -113 0
-166 -114 0
-114 -166 0
-115 -167 0
-167 -115 0
-168 -116 0
-169 -117 0
-120 -172 0
-173 -121 0
-121 -173 0
-122 -174 0
-174 -122 0
-175 -123 0
-123 -175 0
-124 -176 0
-176 -124 0
-199 -193 0
-194 -200 0
-200 -194 0
-201 -195 0
-202 -188 0
-188 -202 0
-203 -189 0
-189 -203 0
-190 -204 0
-214 -212 0
-212 -214 0
-215 -211 0
-77 -246 0
-95 -249 0
-101 -250 0
-250 -101 0
-253 -251 0
-29 -27 0
-27 -29 0
-65 -30 0
-234 -238 0
-239 -235 0
-235 -239 0
-236 -240 0
-241 -231 0
-231 -241 0
-232 -242 0
-233 -243 0
-243 -233 0
-33 -245 0
