projected/problems_b25_r0_d7_m100_s666/b25_d7_r0_s666_046.smt2
(set-logic QF_UF)
(declare-fun A0 () Bool)
(declare-fun A1 () Bool)
(declare-fun A2 () Bool)
(declare-fun A3 () Bool)
(declare-fun A4 () Bool)
(declare-fun A5 () Bool)
(declare-fun A6 () Bool)
(declare-fun A7 () Bool)
(declare-fun A8 () Bool)
(declare-fun A9 () Bool)
(declare-fun A10 () Bool)
(declare-fun A11 () Bool)
(declare-fun A12 () Bool)
(declare-fun A13 () Bool)
(declare-fun A14 () Bool)
(declare-fun A15 () Bool)
(declare-fun A16 () Bool)
(declare-fun A17 () Bool)
(declare-fun A18 () Bool)
(declare-fun A19 () Bool)
(declare-fun A20 () Bool)
(declare-fun A21 () Bool)
(declare-fun A22 () Bool)
(declare-fun A23 () Bool)
(declare-fun A24 () Bool)
(assert (let ((.def_0 (not A6))) (let ((.def_1 (and A18 .def_0))) (let ((.def_2 (not A3))) (let ((.def_3 (or A8 .def_2))) (let ((.def_4 (and .def_3 .def_1))) (let ((.def_5 (or A9 .def_2))) (let ((.def_6 (or .def_2 A6))) (let ((.def_7 (or .def_6 .def_5))) (let ((.def_8 (= .def_7 .def_4))) (let ((.def_9 (not .def_8))) (let ((.def_10 (not A5))) (let ((.def_11 (not A10))) (let ((.def_12 (and .def_11 .def_10))) (let ((.def_13 (not .def_12))) (let ((.def_14 (not A7))) (let ((.def_15 (and A11 .def_14))) (let ((.def_16 (not .def_15))) (let ((.def_17 (and .def_16 .def_13))) (let ((.def_18 (not .def_17))) (let ((.def_19 (not A17))) (let ((.def_20 (and A12 .def_19))) (let ((.def_21 (not .def_20))) (let ((.def_22 (and A1 A3))) (let ((.def_23 (not .def_22))) (let ((.def_24 (or .def_23 .def_21))) (let ((.def_25 (not .def_24))) (let ((.def_26 (and .def_25 .def_18))) (let ((.def_27 (not .def_26))) (let ((.def_28 (and .def_27 .def_9))) (let ((.def_29 (or A12 A15))) (let ((.def_30 (not A16))) (let ((.def_31 (not A22))) (let ((.def_32 (or .def_31 .def_30))) (let ((.def_33 (not .def_32))) (let ((.def_34 (and .def_33 .def_29))) (let ((.def_35 (not .def_34))) (let ((.def_36 (not A8))) (let ((.def_37 (and .def_36 A9))) (let ((.def_38 (not A0))) (let ((.def_39 (and A14 .def_38))) (let ((.def_40 (and .def_39 .def_37))) (let ((.def_41 (not .def_40))) (let ((.def_42 (and .def_41 .def_35))) (let ((.def_43 (not .def_42))) (let ((.def_44 (not A9))) (let ((.def_45 (and .def_44 A14))) (let ((.def_46 (not .def_45))) (let ((.def_47 (not A21))) (let ((.def_48 (or A22 .def_47))) (let ((.def_49 (not .def_48))) (let ((.def_50 (= .def_49 .def_46))) (let ((.def_51 (not .def_50))) (let ((.def_52 (or A21 A17))) (let ((.def_53 (not .def_52))) (let ((.def_54 (or .def_19 A12))) (let ((.def_55 (= .def_54 .def_53))) (let ((.def_56 (not .def_55))) (let ((.def_57 (or .def_56 .def_51))) (let ((.def_58 (or .def_57 .def_43))) (let ((.def_59 (and .def_58 .def_28))) (let ((.def_60 (and .def_36 A18))) (let ((.def_61 (not A18))) (let ((.def_62 (or .def_61 .def_2))) (let ((.def_63 (= .def_62 .def_60))) (let ((.def_64 (not .def_63))) (let ((.def_65 (not A24))) (let ((.def_66 (and .def_65 A19))) (let ((.def_67 (not .def_66))) (let ((.def_68 (or .def_31 A24))) (let ((.def_69 (or .def_68 .def_67))) (let ((.def_70 (not .def_69))) (let ((.def_71 (and .def_70 .def_64))) (let ((.def_72 (and .def_36 A20))) (let ((.def_73 (and A2 A11))) (let ((.def_74 (and .def_73 .def_72))) (let ((.def_75 (not .def_74))) (let ((.def_76 (not A14))) (let ((.def_77 (or A22 .def_76))) (let ((.def_78 (and A0 A11))) (let ((.def_79 (and .def_78 .def_77))) (let ((.def_80 (not .def_79))) (let ((.def_81 (and .def_80 .def_75))) (let ((.def_82 (not .def_81))) (let ((.def_83 (and .def_82 .def_71))) (let ((.def_84 (not A11))) (let ((.def_85 (or .def_84 .def_84))) (let ((.def_86 (not .def_85))) (let ((.def_87 (and .def_14 A15))) (let ((.def_88 (not .def_87))) (let ((.def_89 (and .def_88 .def_86))) (let ((.def_90 (not .def_89))) (let ((.def_91 (not A4))) (let ((.def_92 (and .def_91 .def_0))) (let ((.def_93 (not .def_92))) (let ((.def_94 (or A5 A13))) (let ((.def_95 (and .def_94 .def_93))) (let ((.def_96 (not .def_95))) (let ((.def_97 (and .def_96 .def_90))) (let ((.def_98 (not .def_97))) (let ((.def_99 (not A2))) (let ((.def_100 (and A3 .def_99))) (let ((.def_101 (not .def_100))) (let ((.def_102 (not A15))) (let ((.def_103 (or .def_102 A1))) (let ((.def_104 (or .def_103 .def_101))) (let ((.def_105 (= A19 .def_38))) (let ((.def_106 (or .def_84 .def_44))) (let ((.def_107 (not .def_106))) (let ((.def_108 (and .def_107 .def_105))) (let ((.def_109 (not .def_108))) (let ((.def_110 (and .def_109 .def_104))) (let ((.def_111 (not .def_110))) (let ((.def_112 (or .def_111 .def_98))) (let ((.def_113 (not .def_112))) (let ((.def_114 (= .def_113 .def_83))) (let ((.def_115 (and .def_114 .def_59))) (let ((.def_116 (not .def_115))) (let ((.def_117 (= .def_19 .def_19))) (let ((.def_118 (not A20))) (let ((.def_119 (and .def_31 .def_118))) (let ((.def_120 (not .def_119))) (let ((.def_121 (and .def_120 .def_117))) (let ((.def_122 (not .def_121))) (let ((.def_123 (or .def_76 A3))) (let ((.def_124 (not .def_123))) (let ((.def_125 (and .def_10 A10))) (let ((.def_126 (not .def_125))) (let ((.def_127 (and .def_126 .def_124))) (let ((.def_128 (not .def_127))) (let ((.def_129 (or .def_128 .def_122))) (let ((.def_130 (= A15 A0))) (let ((.def_131 (and .def_19 A1))) (let ((.def_132 (not .def_131))) (let ((.def_133 (and .def_132 .def_130))) (let ((.def_134 (or .def_44 .def_76))) (let ((.def_135 (not .def_134))) (let ((.def_136 (not A23))) (let ((.def_137 (or .def_136 A10))) (let ((.def_138 (not .def_137))) (let ((.def_139 (or .def_138 .def_135))) (let ((.def_140 (= .def_139 .def_133))) (let ((.def_141 (and .def_140 .def_129))) (let ((.def_142 (not .def_141))) (let ((.def_143 (or .def_44 A3))) (let ((.def_144 (and A6 A1))) (let ((.def_145 (and .def_144 .def_143))) (let ((.def_146 (not .def_145))) (let ((.def_147 (or A21 .def_44))) (let ((.def_148 (not .def_147))) (let ((.def_149 (not A12))) (let ((.def_150 (or A13 .def_149))) (let ((.def_151 (= .def_150 .def_148))) (let ((.def_152 (or .def_151 .def_146))) (let ((.def_153 (= .def_30 .def_30))) (let ((.def_154 (or A15 A15))) (let ((.def_155 (or .def_154 .def_153))) (let ((.def_156 (not .def_155))) (let ((.def_157 (= .def_44 .def_31))) (let ((.def_158 (not A13))) (let ((.def_159 (and .def_158 A21))) (let ((.def_160 (not .def_159))) (let ((.def_161 (and .def_160 .def_157))) (let ((.def_162 (and .def_161 .def_156))) (let ((.def_163 (or .def_162 .def_152))) (let ((.def_164 (and .def_163 .def_142))) (let ((.def_165 (not .def_164))) (let ((.def_166 (and .def_149 A21))) (let ((.def_167 (not A1))) (let ((.def_168 (= .def_167 A5))) (let ((.def_169 (or .def_168 .def_166))) (let ((.def_170 (not .def_169))) (let ((.def_171 (and A9 .def_10))) (let ((.def_172 (= .def_171 .def_103))) (let ((.def_173 (not .def_172))) (let ((.def_174 (and .def_173 .def_170))) (let ((.def_175 (and .def_149 A22))) (let ((.def_176 (or .def_136 .def_65))) (let ((.def_177 (not .def_176))) (let ((.def_178 (or .def_177 .def_175))) (let ((.def_179 (and .def_84 .def_2))) (let ((.def_180 (not .def_179))) (let ((.def_181 (or .def_10 A8))) (let ((.def_182 (or .def_181 .def_180))) (let ((.def_183 (not .def_182))) (let ((.def_184 (= .def_183 .def_178))) (let ((.def_185 (= .def_184 .def_174))) (let ((.def_186 (not .def_185))) (let ((.def_187 (or A9 A21))) (let ((.def_188 (not .def_187))) (let ((.def_189 (and A3 A22))) (let ((.def_190 (not .def_189))) (let ((.def_191 (and .def_190 .def_188))) (let ((.def_192 (not .def_191))) (let ((.def_193 (and A14 A19))) (let ((.def_194 (not .def_193))) (let ((.def_195 (or .def_19 .def_30))) (let ((.def_196 (not .def_195))) (let ((.def_197 (or .def_196 .def_194))) (let ((.def_198 (not .def_197))) (let ((.def_199 (or .def_198 .def_192))) (let ((.def_200 (and A3 .def_11))) (let ((.def_201 (not .def_200))) (let ((.def_202 (and A12 A22))) (let ((.def_203 (not .def_202))) (let ((.def_204 (or .def_203 .def_201))) (let ((.def_205 (not .def_204))) (let ((.def_206 (or A22 A16))) (let ((.def_207 (and A10 A14))) (let ((.def_208 (not .def_207))) (let ((.def_209 (and .def_208 .def_206))) (let ((.def_210 (and .def_209 .def_205))) (let ((.def_211 (not .def_210))) (let ((.def_212 (and .def_211 .def_199))) (let ((.def_213 (and .def_212 .def_186))) (let ((.def_214 (or .def_213 .def_165))) (let ((.def_215 (and .def_214 .def_116))) .def_215)))))))))))))))))))))))))))))))))))))))))))))))))))))))))))))))))))))))))))))))))))))))))))))))))))))))))))))))))))))))))))))))))))))))))))))))))))))))))))))))))))))))))))))))))))))))))))))))))))))))))))))))))))))))))
(check-sat)
